40
238
4
25
30
32
2
0 17
0 19
0 25
0 30
0 35
0 36
1 3
1 4
1 6
1 11
1 13
1 16
1 22
1 26
1 27
1 31
1 32
1 33
1 35
1 38
1 39
2 4
2 6
2 10
2 13
2 16
2 18
2 20
2 21
2 24
2 31
2 32
2 35
2 39
3 4
3 6
3 12
3 13
3 15
3 16
3 17
3 18
3 19
3 20
3 22
3 24
3 26
3 31
3 32
3 35
3 36
3 37
3 39
4 17
4 18
4 19
4 29
4 32
5 6
5 11
5 14
5 16
5 19
5 27
5 30
5 39
6 8
6 9
6 15
6 16
6 18
6 22
6 32
6 34
6 35
6 36
6 37
6 38
7 8
7 9
7 10
7 11
7 13
7 17
7 21
7 35
7 36
8 14
8 21
8 28
8 30
8 33
8 36
8 37
8 39
9 10
9 13
9 21
9 23
9 24
9 25
9 26
9 27
9 28
9 29
9 35
9 38
9 39
10 13
10 14
10 15
10 17
10 21
10 28
10 32
10 39
11 15
11 16
11 20
11 23
11 25
11 26
11 29
11 32
11 33
12 15
12 16
12 17
12 19
12 26
12 27
12 38
13 15
13 22
13 25
13 26
13 27
13 31
13 32
13 33
13 35
13 36
13 38
14 15
14 16
14 18
14 24
14 26
14 28
14 29
14 30
14 32
14 33
14 39
15 19
15 21
15 24
15 26
15 33
15 38
16 18
16 19
16 21
16 25
16 30
16 31
16 34
16 35
17 19
17 24
17 27
17 31
17 35
17 36
18 28
18 30
18 36
19 20
19 22
19 25
19 29
19 32
19 34
19 36
20 21
20 23
20 25
20 31
20 32
20 35
20 37
21 22
21 29
21 31
21 34
21 35
22 23
22 26
22 29
22 37
23 25
23 31
23 35
23 36
24 26
24 27
24 33
24 38
24 39
25 26
25 28
25 29
25 35
25 39
26 27
26 28
26 33
26 39
27 28
27 30
28 31
28 33
28 34
28 35
28 36
29 31
29 35
30 33
31 35
31 37
32 34
32 38
33 34
33 38
34 36
35 38
36 37
36 38
28 27 4 14 15 35 9 1 16 22
12 36 20 18 26 32 5 13 24 11
38 39 19 25 34 8 23 33 10 2
21 17 3 37 6 0 31 29 30 7
